p edge 62 954
e 1 2
e 1 3
e 1 5
e 1 6
e 1 7
e 1 8
e 1 10
e 1 11
e 1 12
e 1 13
e 1 15
e 1 16
e 1 19
e 1 22
e 1 27
e 1 28
e 1 30
e 1 31
e 1 33
e 1 34
e 1 36
e 1 41
e 1 43
e 1 46
e 1 47
e 1 49
e 1 50
e 1 51
e 1 53
e 1 54
e 1 60
e 1 62
e 2 3
e 2 4
e 2 6
e 2 8
e 2 11
e 2 14
e 2 15
e 2 16
e 2 17
e 2 18
e 2 22
e 2 25
e 2 27
e 2 28
e 2 29
e 2 30
e 2 34
e 2 38
e 2 39
e 2 40
e 2 41
e 2 43
e 2 45
e 2 46
e 2 48
e 2 51
e 2 54
e 2 55
e 2 56
e 2 57
e 2 59
e 2 60
e 2 62
e 3 4
e 3 5
e 3 7
e 3 10
e 3 11
e 3 13
e 3 14
e 3 15
e 3 17
e 3 19
e 3 21
e 3 25
e 3 26
e 3 30
e 3 32
e 3 33
e 3 35
e 3 38
e 3 39
e 3 40
e 3 43
e 3 45
e 3 47
e 3 48
e 3 51
e 3 52
e 3 56
e 3 57
e 3 58
e 3 59
e 4 6
e 4 13
e 4 14
e 4 15
e 4 17
e 4 19
e 4 23
e 4 24
e 4 27
e 4 29
e 4 34
e 4 36
e 4 38
e 4 39
e 4 41
e 4 43
e 4 44
e 4 45
e 4 46
e 4 48
e 4 50
e 4 51
e 4 53
e 4 55
e 4 60
e 4 61
e 5 7
e 5 9
e 5 11
e 5 13
e 5 14
e 5 15
e 5 16
e 5 18
e 5 19
e 5 20
e 5 21
e 5 25
e 5 26
e 5 29
e 5 33
e 5 34
e 5 38
e 5 39
e 5 48
e 5 50
e 5 51
e 5 52
e 5 53
e 5 54
e 5 55
e 5 56
e 5 58
e 5 61
e 5 62
e 6 7
e 6 9
e 6 13
e 6 14
e 6 15
e 6 17
e 6 18
e 6 19
e 6 23
e 6 24
e 6 25
e 6 26
e 6 27
e 6 29
e 6 31
e 6 37
e 6 38
e 6 41
e 6 42
e 6 43
e 6 47
e 6 48
e 6 49
e 6 55
e 6 60
e 6 61
e 6 62
e 7 8
e 7 10
e 7 14
e 7 15
e 7 16
e 7 19
e 7 21
e 7 24
e 7 26
e 7 27
e 7 28
e 7 29
e 7 30
e 7 31
e 7 35
e 7 37
e 7 38
e 7 39
e 7 44
e 7 47
e 7 48
e 7 51
e 7 52
e 7 54
e 7 56
e 7 58
e 7 59
e 8 10
e 8 11
e 8 17
e 8 18
e 8 21
e 8 22
e 8 27
e 8 28
e 8 32
e 8 37
e 8 38
e 8 40
e 8 42
e 8 46
e 8 47
e 8 48
e 8 50
e 8 51
e 8 54
e 8 55
e 8 56
e 8 57
e 8 62
e 9 10
e 9 15
e 9 17
e 9 19
e 9 20
e 9 22
e 9 23
e 9 25
e 9 27
e 9 28
e 9 30
e 9 32
e 9 33
e 9 34
e 9 35
e 9 36
e 9 41
e 9 42
e 9 44
e 9 51
e 9 53
e 9 56
e 9 57
e 9 58
e 9 59
e 9 60
e 9 61
e 10 12
e 10 13
e 10 14
e 10 17
e 10 18
e 10 19
e 10 21
e 10 22
e 10 25
e 10 27
e 10 32
e 10 33
e 10 34
e 10 35
e 10 37
e 10 41
e 10 45
e 10 47
e 10 49
e 10 51
e 10 52
e 10 53
e 10 54
e 10 55
e 10 57
e 10 58
e 10 59
e 10 60
e 10 61
e 11 12
e 11 16
e 11 18
e 11 20
e 11 23
e 11 26
e 11 28
e 11 29
e 11 31
e 11 32
e 11 35
e 11 36
e 11 39
e 11 40
e 11 45
e 11 47
e 11 49
e 11 52
e 11 53
e 11 54
e 11 58
e 11 61
e 12 14
e 12 15
e 12 16
e 12 19
e 12 20
e 12 24
e 12 27
e 12 28
e 12 29
e 12 30
e 12 33
e 12 35
e 12 37
e 12 38
e 12 39
e 12 40
e 12 42
e 12 43
e 12 44
e 12 46
e 12 47
e 12 51
e 12 52
e 12 54
e 12 57
e 12 58
e 12 59
e 12 60
e 12 61
e 13 15
e 13 18
e 13 19
e 13 23
e 13 24
e 13 26
e 13 29
e 13 30
e 13 33
e 13 35
e 13 37
e 13 38
e 13 45
e 13 46
e 13 50
e 13 51
e 13 52
e 13 55
e 13 56
e 13 58
e 13 59
e 13 60
e 13 62
e 14 18
e 14 21
e 14 22
e 14 25
e 14 28
e 14 29
e 14 30
e 14 32
e 14 34
e 14 35
e 14 36
e 14 37
e 14 38
e 14 39
e 14 40
e 14 44
e 14 45
e 14 47
e 14 50
e 14 51
e 14 52
e 14 57
e 14 60
e 14 61
e 15 17
e 15 20
e 15 21
e 15 25
e 15 27
e 15 28
e 15 30
e 15 33
e 15 34
e 15 40
e 15 41
e 15 42
e 15 43
e 15 49
e 15 54
e 15 55
e 15 59
e 15 62
e 16 23
e 16 24
e 16 25
e 16 27
e 16 28
e 16 29
e 16 31
e 16 32
e 16 33
e 16 40
e 16 42
e 16 43
e 16 45
e 16 46
e 16 47
e 16 48
e 16 52
e 16 53
e 16 56
e 16 60
e 16 61
e 16 62
e 17 19
e 17 20
e 17 21
e 17 25
e 17 26
e 17 27
e 17 29
e 17 31
e 17 32
e 17 34
e 17 35
e 17 36
e 17 39
e 17 42
e 17 44
e 17 45
e 17 46
e 17 48
e 17 49
e 17 50
e 17 52
e 17 53
e 17 55
e 17 56
e 17 58
e 17 59
e 17 60
e 18 19
e 18 20
e 18 25
e 18 27
e 18 28
e 18 32
e 18 33
e 18 35
e 18 37
e 18 39
e 18 41
e 18 42
e 18 43
e 18 44
e 18 45
e 18 46
e 18 49
e 18 50
e 18 51
e 18 52
e 18 54
e 18 55
e 18 56
e 18 58
e 18 59
e 18 61
e 19 20
e 19 21
e 19 22
e 19 23
e 19 25
e 19 26
e 19 27
e 19 28
e 19 29
e 19 30
e 19 33
e 19 34
e 19 35
e 19 37
e 19 38
e 19 39
e 19 40
e 19 42
e 19 44
e 19 46
e 19 48
e 19 49
e 19 51
e 19 52
e 19 53
e 19 55
e 19 57
e 19 60
e 19 61
e 19 62
e 20 21
e 20 23
e 20 24
e 20 26
e 20 27
e 20 31
e 20 32
e 20 33
e 20 34
e 20 35
e 20 38
e 20 43
e 20 46
e 20 47
e 20 49
e 20 51
e 20 53
e 20 57
e 20 58
e 20 59
e 20 60
e 20 61
e 20 62
e 21 22
e 21 23
e 21 26
e 21 27
e 21 28
e 21 31
e 21 33
e 21 34
e 21 35
e 21 38
e 21 39
e 21 42
e 21 43
e 21 48
e 21 50
e 21 51
e 21 52
e 21 60
e 21 62
e 22 25
e 22 27
e 22 29
e 22 35
e 22 36
e 22 37
e 22 41
e 22 46
e 22 49
e 22 50
e 22 52
e 22 54
e 22 55
e 22 57
e 22 59
e 22 61
e 23 24
e 23 25
e 23 26
e 23 28
e 23 30
e 23 31
e 23 32
e 23 34
e 23 35
e 23 36
e 23 40
e 23 42
e 23 43
e 23 46
e 23 48
e 23 49
e 23 51
e 23 52
e 23 54
e 23 55
e 23 57
e 23 58
e 23 60
e 23 62
e 24 25
e 24 26
e 24 29
e 24 30
e 24 32
e 24 34
e 24 35
e 24 39
e 24 40
e 24 41
e 24 44
e 24 48
e 24 51
e 24 53
e 24 59
e 24 62
e 25 27
e 25 28
e 25 29
e 25 31
e 25 32
e 25 34
e 25 35
e 25 36
e 25 37
e 25 39
e 25 40
e 25 41
e 25 42
e 25 45
e 25 46
e 25 50
e 25 52
e 25 56
e 25 58
e 25 61
e 26 28
e 26 29
e 26 30
e 26 33
e 26 34
e 26 35
e 26 36
e 26 37
e 26 38
e 26 48
e 26 51
e 26 54
e 26 58
e 26 59
e 26 61
e 27 29
e 27 30
e 27 34
e 27 35
e 27 37
e 27 38
e 27 41
e 27 42
e 27 43
e 27 44
e 27 45
e 27 46
e 27 47
e 27 48
e 27 51
e 27 52
e 27 53
e 27 54
e 27 55
e 27 56
e 27 58
e 27 61
e 28 30
e 28 31
e 28 33
e 28 34
e 28 35
e 28 37
e 28 38
e 28 39
e 28 40
e 28 41
e 28 42
e 28 43
e 28 44
e 28 45
e 28 47
e 28 48
e 28 49
e 28 50
e 28 51
e 28 52
e 28 53
e 28 56
e 28 57
e 28 59
e 28 60
e 28 61
e 29 30
e 29 33
e 29 34
e 29 35
e 29 37
e 29 38
e 29 39
e 29 41
e 29 43
e 29 45
e 29 47
e 29 48
e 29 51
e 29 52
e 29 53
e 29 54
e 29 57
e 29 58
e 29 61
e 30 31
e 30 34
e 30 37
e 30 38
e 30 40
e 30 41
e 30 42
e 30 43
e 30 45
e 30 46
e 30 47
e 30 48
e 30 49
e 30 50
e 30 51
e 30 53
e 30 55
e 30 57
e 30 60
e 30 61
e 31 32
e 31 33
e 31 34
e 31 35
e 31 38
e 31 39
e 31 41
e 31 42
e 31 44
e 31 45
e 31 46
e 31 47
e 31 48
e 31 49
e 31 51
e 31 52
e 31 57
e 31 58
e 31 59
e 31 61
e 31 62
e 32 36
e 32 39
e 32 42
e 32 46
e 32 47
e 32 50
e 32 52
e 32 53
e 32 58
e 32 59
e 32 60
e 32 62
e 33 36
e 33 37
e 33 39
e 33 41
e 33 42
e 33 45
e 33 49
e 33 50
e 33 51
e 33 52
e 33 54
e 33 55
e 33 58
e 33 59
e 33 62
e 34 36
e 34 37
e 34 38
e 34 40
e 34 42
e 34 47
e 34 49
e 34 50
e 34 51
e 34 52
e 34 53
e 34 54
e 34 55
e 34 56
e 34 60
e 34 61
e 35 36
e 35 37
e 35 44
e 35 45
e 35 48
e 35 49
e 35 50
e 35 51
e 35 52
e 35 53
e 35 55
e 35 56
e 35 58
e 35 61
e 35 62
e 36 39
e 36 41
e 36 42
e 36 44
e 36 46
e 36 49
e 36 51
e 36 52
e 36 54
e 36 59
e 36 61
e 37 38
e 37 39
e 37 40
e 37 41
e 37 46
e 37 49
e 37 53
e 37 56
e 37 57
e 38 42
e 38 49
e 38 52
e 38 53
e 38 54
e 38 56
e 38 58
e 38 60
e 39 40
e 39 42
e 39 44
e 39 45
e 39 48
e 39 54
e 39 55
e 39 57
e 39 59
e 39 60
e 40 41
e 40 42
e 40 43
e 40 45
e 40 46
e 40 47
e 40 50
e 40 52
e 40 55
e 40 58
e 40 60
e 40 62
e 41 43
e 41 44
e 41 47
e 41 48
e 41 49
e 41 51
e 41 52
e 41 57
e 41 61
e 42 43
e 42 45
e 42 46
e 42 48
e 42 49
e 42 52
e 42 53
e 42 56
e 42 57
e 42 58
e 43 45
e 43 51
e 43 53
e 43 55
e 43 61
e 43 62
e 44 45
e 44 48
e 44 49
e 44 50
e 44 51
e 44 53
e 44 54
e 44 56
e 44 57
e 44 61
e 45 47
e 45 50
e 45 51
e 45 57
e 45 59
e 45 60
e 45 62
e 46 54
e 46 57
e 46 58
e 47 50
e 47 53
e 47 56
e 47 57
e 47 59
e 47 61
e 47 62
e 48 50
e 48 57
e 48 58
e 48 60
e 48 61
e 48 62
e 49 50
e 49 51
e 49 52
e 49 53
e 49 54
e 50 51
e 50 53
e 50 55
e 50 61
e 50 62
e 51 52
e 51 53
e 51 57
e 51 58
e 51 60
e 51 62
e 52 53
e 52 54
e 52 55
e 52 56
e 52 57
e 52 59
e 53 54
e 53 55
e 53 56
e 53 57
e 54 56
e 54 58
e 54 60
e 55 56
e 55 57
e 55 59
e 55 61
e 55 62
e 56 57
e 56 62
e 57 58
e 57 60
e 58 59
e 58 60
e 58 62
e 59 62
e 60 62
